c CNF file generated from BLIF2CNF script.
c Original BLIF file was blif/ex1.blif
p cnf 219 816
 -1 0
- -1 0
1 -   0
-1  0
 -2 0
 -2 0
2 - -  0
-2 - 0
-3 -5 0
5 3  0
-5 4 0
-4 5  0
-6 -8 0
8 6  0
-8 7 0
-7 8  0
-9 -11 0
11 9  0
-11 10 0
-10 11  0
-12 -14 0
14 12  0
-14 13 0
-13 14  0
-15 -17 0
17 15  0
-17 16 0
-16 17  0
-18 -20 0
20 18  0
-20 19 0
-19 20  0
-21 -23 0
23 21  0
-23 22 0
-22 23  0
-24 -26 0
26 24  0
-26 25 0
-25 26  0
-27 -29 0
29 27  0
-29 28 0
-28 29  0
-30 -32 0
32 30  0
-32 31 0
-31 32  0
-33 -35 0
35 33  0
-35 34 0
-34 35  0
-36 -38 0
38 36  0
-38 37 0
-37 38  0
-39 -41 0
41 39  0
-41 40 0
-40 41  0
-42 -44 0
44 42  0
-44 43 0
-43 44  0
-45 -47 0
47 45  0
-47 46 0
-46 47  0
-48 -50 0
50 48  0
-50 49 0
-49 50  0
-51 -53 0
53 51  0
-53 52 0
-52 53  0
-54 -56 0
56 54  0
-56 55 0
-55 56  0
-57 -59 0
59 57  0
-59 58 0
-58 59  0
-60 -62 0
62 60  0
-62 61 0
-61 62  0
-63 -65 0
65 63  0
-65 64 0
-64 65  0
-66 -68 0
68 66  0
-68 67 0
-67 68  0
-69 -71 0
71 69  0
-71 70 0
-70 71  0
-72 -74 0
74 72  0
-74 73 0
-73 74  0
-75 -84 0
76 -84 0
77 -84 0
78 -84 0
79 -84 0
80 -84 0
-81 -84 0
-82 -84 0
84 75 -76 -77 -78 -79 -80 81 82  0
-84 83 0
-83 84  0
-75 -88 0
-85 -88 0
76 -88 0
77 -88 0
79 -88 0
80 -88 0
86 -88 0
81 -88 0
88 75 85 -76 -77 -79 -80 -86 -81  0
-88 87 0
-87 88  0
76 -91 0
89 -91 0
79 -91 0
-80 -91 0
-86 -91 0
-81 -91 0
-82 -91 0
91 -76 -89 -79 80 86 81 82  0
-91 90 0
-90 91  0
-75 -93 0
76 -93 0
77 -93 0
78 -93 0
79 -93 0
80 -93 0
86 -93 0
93 75 -76 -77 -78 -79 -80 -86  0
-93 92 0
-92 93  0
-75 -95 0
76 -95 0
-77 -95 0
-80 -95 0
86 -95 0
81 -95 0
-82 -95 0
95 75 -76 77 80 -86 -81 82  0
-95 94 0
-94 95  0
-75 -97 0
76 -97 0
-77 -97 0
79 -97 0
80 -97 0
86 -97 0
81 -97 0
97 75 -76 77 -79 -80 -86 -81  0
-97 96 0
-96 97  0
-75 -99 0
76 -99 0
77 -99 0
-80 -99 0
86 -99 0
-81 -99 0
-82 -99 0
99 75 -76 -77 80 -86 81 82  0
-99 98 0
-98 99  0
-75 -101 0
76 -101 0
-80 -101 0
86 -101 0
-81 -101 0
82 -101 0
101 75 -76 80 -86 81 -82  0
-101 100 0
-100 101  0
-75 -103 0
-85 -103 0
76 -103 0
77 -103 0
80 -103 0
86 -103 0
-82 -103 0
103 75 85 -76 -77 -80 -86 82  0
-103 102 0
-102 103  0
-75 -106 0
85 -106 0
-104 -106 0
-79 -106 0
-82 -106 0
106 75 -85 104 79 82  0
-106 105 0
-105 106  0
-75 -108 0
-85 -108 0
76 -108 0
77 -108 0
80 -108 0
81 -108 0
-82 -108 0
108 75 85 -76 -77 -80 -81 82  0
-108 107 0
-107 108  0
-75 -110 0
76 -110 0
77 -110 0
79 -110 0
-80 -110 0
86 -110 0
82 -110 0
110 75 -76 -77 -79 80 -86 -82  0
-110 109 0
-109 110  0
-75 -112 0
76 -112 0
-77 -112 0
80 -112 0
81 -112 0
-82 -112 0
112 75 -76 77 -80 -81 82  0
-112 111 0
-111 112  0
-75 -114 0
76 -114 0
-77 -114 0
79 -114 0
86 -114 0
82 -114 0
114 75 -76 77 -79 -86 -82  0
-114 113 0
-113 114  0
-75 -116 0
76 -116 0
77 -116 0
79 -116 0
80 -116 0
-86 -116 0
-81 -116 0
-82 -116 0
116 75 -76 -77 -79 -80 86 81 82  0
-116 115 0
-115 116  0
-80 -118 0
-86 -118 0
-81 -118 0
82 -118 0
118 80 86 81 -82  0
-118 117 0
-117 118  0
-75 -120 0
-85 -120 0
-104 -120 0
-79 -120 0
-82 -120 0
120 75 85 104 79 82  0
-120 119 0
-119 120  0
-80 -122 0
-86 -122 0
81 -122 0
-82 -122 0
122 80 86 -81 82  0
-122 121 0
-121 122  0
-75 -124 0
-85 -124 0
76 -124 0
77 -124 0
80 -124 0
-86 -124 0
-81 -124 0
82 -124 0
124 75 85 -76 -77 -80 86 81 -82  0
-124 123 0
-123 124  0
-75 -126 0
76 -126 0
-77 -126 0
79 -126 0
80 -126 0
81 -126 0
126 75 -76 77 -79 -80 -81  0
-126 125 0
-125 126  0
-75 -128 0
76 -128 0
-77 -128 0
79 -128 0
80 -128 0
-86 -128 0
-82 -128 0
128 75 -76 77 -79 -80 86 82  0
-128 127 0
-127 128  0
-75 -130 0
85 -130 0
76 -130 0
77 -130 0
80 -130 0
-86 -130 0
-81 -130 0
82 -130 0
130 75 -85 -76 -77 -80 86 81 -82  0
-130 129 0
-129 130  0
76 -132 0
-89 -132 0
79 -132 0
-81 -132 0
-82 -132 0
132 -76 89 -79 81 82  0
-132 131 0
-131 132  0
-75 -134 0
85 -134 0
76 -134 0
-77 -134 0
80 -134 0
86 -134 0
-81 -134 0
134 75 -85 -76 77 -80 -86 81  0
-134 133 0
-133 134  0
135 -137 0
79 -137 0
-81 -137 0
137 -135 -79 81  0
-137 136 0
-136 137  0
135 -139 0
81 -139 0
-82 -139 0
139 -135 -81 82  0
-139 138 0
-138 139  0
-75 -141 0
76 -141 0
77 -141 0
80 -141 0
-86 -141 0
81 -141 0
82 -141 0
141 75 -76 -77 -80 86 -81 -82  0
-141 140 0
-140 141  0
135 -143 0
79 -143 0
86 -143 0
143 -135 -79 -86  0
-143 142 0
-142 143  0
135 -145 0
79 -145 0
80 -145 0
145 -135 -79 -80  0
-145 144 0
-144 145  0
-75 -147 0
76 -147 0
-80 -147 0
-86 -147 0
81 -147 0
82 -147 0
147 75 -76 80 86 -81 -82  0
-147 146 0
-146 147  0
-75 -149 0
76 -149 0
77 -149 0
80 -149 0
86 -149 0
-81 -149 0
82 -149 0
149 75 -76 -77 -80 -86 81 -82  0
-149 148 0
-148 149  0
-75 -151 0
76 -151 0
77 -151 0
80 -151 0
-86 -151 0
81 -151 0
-82 -151 0
151 75 -76 -77 -80 86 -81 82  0
-151 150 0
-150 151  0
-76 -153 0
79 -153 0
-82 -153 0
153 76 -79 82  0
-153 152 0
-152 153  0
-75 -155 0
76 -155 0
-77 -155 0
79 -155 0
86 -155 0
81 -155 0
155 75 -76 77 -79 -86 -81  0
-155 154 0
-154 155  0
-76 -157 0
-80 -157 0
-86 -157 0
81 -157 0
82 -157 0
157 76 80 86 -81 -82  0
-157 156 0
-156 157  0
-76 -159 0
79 -159 0
80 -159 0
159 76 -79 -80  0
-159 158 0
-158 159  0
-75 -161 0
85 -161 0
76 -161 0
-79 -161 0
80 -161 0
82 -161 0
161 75 -85 -76 79 -80 -82  0
-161 160 0
-160 161  0
-75 -163 0
76 -163 0
77 -163 0
-80 -163 0
86 -163 0
81 -163 0
-82 -163 0
163 75 -76 -77 80 -86 -81 82  0
-163 162 0
-162 163  0
-75 -165 0
76 -165 0
77 -165 0
79 -165 0
80 -165 0
86 -165 0
81 -165 0
165 75 -76 -77 -79 -80 -86 -81  0
-165 164 0
-164 165  0
-75 -167 0
76 -167 0
-77 -167 0
79 -167 0
80 -167 0
82 -167 0
167 75 -76 77 -79 -80 -82  0
-167 166 0
-166 167  0
-75 -169 0
76 -169 0
77 -169 0
80 -169 0
86 -169 0
-81 -169 0
-82 -169 0
169 75 -76 -77 -80 -86 81 82  0
-169 168 0
-168 169  0
-75 -171 0
-85 -171 0
76 -171 0
80 -171 0
86 -171 0
81 -171 0
171 75 85 -76 -80 -86 -81  0
-171 170 0
-170 171  0
-75 -173 0
-85 -173 0
76 -173 0
80 -173 0
86 -173 0
-82 -173 0
173 75 85 -76 -80 -86 82  0
-173 172 0
-172 173  0
-75 -175 0
76 -175 0
-80 -175 0
86 -175 0
-81 -175 0
175 75 -76 80 -86 81  0
-175 174 0
-174 175  0
-76 -177 0
86 -177 0
177 76 -86  0
-177 176 0
-176 177  0
75 -179 0
76 -179 0
81 -179 0
82 -179 0
179 -75 -76 -81 -82  0
-179 178 0
-178 179  0
75 -181 0
76 -181 0
79 -181 0
80 -181 0
181 -75 -76 -79 -80  0
-181 180 0
-180 181  0
-75 -183 0
104 -183 0
-79 -183 0
-82 -183 0
183 75 -104 79 82  0
-183 182 0
-182 183  0
-76 -185 0
-79 -185 0
82 -185 0
185 76 79 -82  0
-185 184 0
-184 185  0
75 -187 0
76 -187 0
86 -187 0
187 -75 -76 -86  0
-187 186 0
-186 187  0
-79 -189 0
-80 -189 0
82 -189 0
189 79 80 -82  0
-189 188 0
-188 189  0
-90 -191 0
-109 -191 0
-115 -191 0
-123 -191 0
-127 -191 0
-129 -191 0
-131 -191 0
-133 -191 0
-140 -191 0
-146 -191 0
-148 -191 0
-150 -191 0
-154 -191 0
-156 -191 0
-190 -191 0
- -191 0
- -191 0
- -191 0
- -191 0
- -191 0
- -191 0
- -191 0
- -191 0
- -191 0
- -191 0
- -191 0
191 90 109 115 123 127 129 131 133 140 146 148 150 154 156 190             0
-191 190 0
-190 191  0
-105 -193 0
-117 -193 0
-121 -193 0
-123 -193 0
-125 -193 0
-127 -193 0
-129 -193 0
-133 -193 0
-146 -193 0
-150 -193 0
-152 -193 0
-158 -193 0
-160 -193 0
-164 -193 0
-192 -193 0
- -193 0
- -193 0
- -193 0
- -193 0
- -193 0
193 105 117 121 123 125 127 129 133 146 150 152 158 160 164 192       0
-193 192 0
-192 193  0
-107 -195 0
-113 -195 0
-115 -195 0
-119 -195 0
-133 -195 0
-140 -195 0
-148 -195 0
-154 -195 0
-160 -195 0
-162 -195 0
-170 -195 0
-172 -195 0
-174 -195 0
-184 -195 0
-194 -195 0
195 107 113 115 119 133 140 148 154 160 162 170 172 174 184 194  0
-195 194 0
-194 195  0
-87 -197 0
-102 -197 0
-107 -197 0
-109 -197 0
-119 -197 0
-123 -197 0
-125 -197 0
-129 -197 0
-154 -197 0
-156 -197 0
-162 -197 0
-182 -197 0
-184 -197 0
-188 -197 0
197 87 102 107 109 119 123 125 129 154 156 162 182 184 188  0
-197 196 0
-196 197  0
-87 -198 0
-90 -198 0
-98 -198 0
-102 -198 0
-113 -198 0
-119 -198 0
-129 -198 0
-133 -198 0
-146 -198 0
-156 -198 0
-160 -198 0
-162 -198 0
-166 -198 0
-182 -198 0
-184 -198 0
-194 -198 0
198 87 90 98 102 113 119 129 133 146 156 160 162 166 182 184 194  0
-198 194 0
-194 198  0
-105 -199 0
-119 -199 0
-182 -199 0
199 105 119 182  0
-199 3 0
-3 199  0
-156 -200 0
-178 -200 0
-180 -200 0
-182 -200 0
-184 -200 0
-186 -200 0
-188 -200 0
200 156 178 180 182 184 186 188  0
-200 6 0
-6 200  0
-156 -201 0
-162 -201 0
-182 -201 0
-184 -201 0
-188 -201 0
201 156 162 182 184 188  0
-201 9 0
-9 201  0
-115 -203 0
-123 -203 0
-127 -203 0
-129 -203 0
-131 -203 0
-133 -203 0
-140 -203 0
-146 -203 0
-148 -203 0
-150 -203 0
-154 -203 0
-156 -203 0
-160 -203 0
-162 -203 0
-202 -203 0
- -203 0
- -203 0
- -203 0
- -203 0
- -203 0
- -203 0
- -203 0
- -203 0
- -203 0
- -203 0
- -203 0
203 115 123 127 129 131 133 140 146 148 150 154 156 160 162 202             0
-203 202 0
-202 203  0
-115 -205 0
-123 -205 0
-129 -205 0
-140 -205 0
-148 -205 0
-150 -205 0
-156 -205 0
-162 -205 0
-164 -205 0
-168 -205 0
-178 -205 0
-180 -205 0
-182 -205 0
-184 -205 0
-204 -205 0
- -205 0
205 115 123 129 140 148 150 156 162 164 168 178 180 182 184 204   0
-205 204 0
-204 205  0
-119 -206 0
206 119  0
-206 18 0
-18 206  0
-96 -207 0
-107 -207 0
-111 -207 0
-119 -207 0
-123 -207 0
-170 -207 0
-172 -207 0
-184 -207 0
-188 -207 0
207 96 107 111 119 123 170 172 184 188  0
-207 21 0
-21 207  0
-178 -208 0
-180 -208 0
-186 -208 0
208 178 180 186  0
-208 24 0
-24 208  0
-150 -209 0
-164 -209 0
-168 -209 0
-188 -209 0
209 150 164 168 188  0
-209 27 0
-27 209  0
-136 -210 0
-138 -210 0
-142 -210 0
-144 -210 0
210 136 138 142 144  0
-210 30 0
-30 210  0
-123 -211 0
-129 -211 0
211 123 129  0
-211 33 0
-33 211  0
-123 -212 0
-129 -212 0
-148 -212 0
-168 -212 0
212 123 129 148 168  0
-212 36 0
-36 212  0
-94 -213 0
-115 -213 0
-123 -213 0
-125 -213 0
-127 -213 0
-129 -213 0
-140 -213 0
-148 -213 0
-150 -213 0
-164 -213 0
-168 -213 0
-174 -213 0
213 94 115 123 125 127 129 140 148 150 164 168 174  0
-213 39 0
-39 213  0
-117 -214 0
-121 -214 0
214 117 121  0
-214 42 0
-42 214  0
-117 -215 0
215 117  0
-215 45 0
-45 215  0
-140 -216 0
-150 -216 0
216 140 150  0
-216 48 0
-48 216  0
-83 -217 0
-92 -217 0
217 83 92  0
-217 51 0
-51 217  0
-115 -218 0
-148 -218 0
-164 -218 0
-168 -218 0
218 115 148 164 168  0
-218 54 0
-54 218  0
-94 -219 0
-98 -219 0
-100 -219 0
219 94 98 100  0
-219 57 0
-57 219  0
